0000000000000000
0011111111111000
0011111111111000
0011111111111000
0000000111100000
0000000111100000
0000000111100000
0000000111100000
0000000111100000
0000000111100000
0000000111100000
0000000111100000
0000000000000000
0000000000000000
0000000000000000
0000000000000000